n_res = 4;
rc = [ 21, 34, 27, 26 ];
n_tasks = 30;
d = [ 4, 2, 1, 2, 3, 9, 9, 3, 7, 10, 8, 4, 6, 3, 9, 6, 8, 4, 3, 4, 5, 6, 7, 9, 5, 1, 4, 5, 5, 1 ];
rr = [| 2, 0, 10, 9, 0, 5, 1, 0, 0, 8, 0, 4, 4, 1, 3, 8, 3, 0, 6, 10, 0, 3, 3, 5, 0, 3, 0, 6, 1, 6
      | 0, 10, 0, 10, 4, 9, 6, 4, 10, 9, 3, 9, 9, 5, 9, 1, 1, 0, 1, 0, 6, 8, 0, 10, 8, 7, 0, 4, 7, 8
      | 8, 3, 0, 8, 8, 7, 8, 0, 0, 2, 3, 8, 0, 3, 8, 10, 5, 4, 6, 6, 0, 0, 4, 10, 4, 3, 2, 2, 6, 3
      | 5, 10, 1, 9, 0, 0, 0, 3, 1, 2, 6, 0, 7, 2, 10, 6, 4, 9, 7, 0, 0, 5, 5, 4, 9, 7, 3, 7, 0, 0 |];
suc = [ { 2 }, 
        { 3 }, 
        { 4 }, 
        { 5 }, 
        { 6 }, 
        { 7 }, 
        { 8 }, 
        { 9 }, 
        { 10 }, 
        { 11 }, 
        { 12 }, 
        { 13 }, 
        { 14 }, 
        { 15 }, 
        { 16 }, 
        { 17 }, 
        { 18 }, 
        { 19 }, 
        { 20 }, 
        { 21 }, 
        { 22 }, 
        { 23 }, 
        { 24 }, 
        { 25 }, 
        { 26 }, 
        { 27 }, 
        { 28 }, 
        { 29 }, 
        { 30 }, 
        {  }]; 
